<number of tasks>
11

<cycle time>
62

<task times>
1 4
2 38
3 45
4 12
5 10
6 8
7 12
8 10
9 2
10 10
11 34

<precedence relations>
1,4
2,4
2,5
3,11
4,6
5,7
6,8
7,9
8,10
9,10
10,11

<setup times forward>
1,2:3
1,5:3
1,7:3
1,9:3
2,1:3
2,3:3
2,4:3
3,2:3
3,5:3
3,6:4
3,7:3
3,8:4
3,9:3
3,10:4
3,11:4
4,5:3
4,6:4
4,7:3
4,9:3
5,1:3
5,3:3
5,4:3
5,6:1
5,8:1
6,3:4
6,5:1
6,7:1
6,9:1
7,1:3
7,3:3
7,4:3
7,6:1
7,8:1
8,3:4
8,5:1
8,7:1
8,9:1
9,1:3
9,3:3
9,4:3
9,6:1
9,8:1
9,10:1
10,3:4

<setup times backward>
1,2:3
1,5:3
1,7:3
1,9:3
3,2:3
3,5:3
3,6:4
3,7:3
3,8:4
3,9:3
3,10:4
4,2:3
4,5:3
4,7:3
4,9:3
5,6:1
5,8:1
7,6:1
7,8:1
9,6:1
9,8:1

<end>

<optimal SALBP-1 value>
3


<rand seed>
467321153

